32	0

0	1	2
1	1	3
8	1	4
10	1	5
10	1	6
7	1	7
5	1	8
7	2	9	10
8	1	11
5	1	11
4	1	12
1	1	13
4	1	14
1	1	15
7	2	16	17
4	1	19
1	1	18
2	1	19
1	1	20
5	1	21
6	1	22
5	1	23
8	1	24
4	1	25
7	2	26	27
9	1	28
9	1	28
1	1	29
10	1	30
5	1	31
5	1	32
0	0
